p tw 717 1400
1 674
1 675
2 330
2 331
2 495
2 496
2 596
2 597
3 612
3 613
4 693
4 694
5 628
5 629
6 282
6 283
6 711
6 712
7 614
7 615
8 85
8 357
8 358
8 426
8 427
8 442
8 502
8 503
9 259
9 260
9 438
9 439
9 455
9 456
9 514
9 515
10 540
10 541
11 345
11 346
11 456
11 457
11 525
11 526
12 592
12 593
13 251
13 252
13 565
13 566
13 619
13 620
13 682
13 683
14 167
14 252
14 581
14 582
14 638
14 639
15 367
15 368
15 646
15 647
16 260
16 261
16 457
16 458
16 526
16 527
17 261
17 262
18 389
18 390
19 309
19 310
19 468
19 469
19 577
19 578
20 275
20 276
20 435
20 436
20 511
20 512
21 351
21 352
22 359
22 360
22 636
22 637
23 281
23 282
23 551
23 552
23 663
23 664
24 257
24 258
25 406
25 407
26 279
26 280
26 550
26 551
27 622
27 623
27 683
27 684
28 320
28 321
28 440
28 441
28 485
28 486
29 280
29 281
30 304
30 305
31 653
31 654
32 605
32 606
33 409
33 410
33 697
33 698
34 624
34 625
35 326
35 327
36 382
36 383
37 621
37 622
38 644
38 645
39 415
39 416
39 589
39 590
40 652
40 653
40 707
40 708
41 263
41 264
42 607
42 608
43 323
43 324
43 425
43 426
43 488
43 489
43 501
43 502
44 414
44 415
45 375
45 376
45 658
45 659
46 648
46 649
47 264
47 265
48 258
48 259
48 454
48 455
48 524
48 525
49 390
49 391
50 96
50 331
50 332
50 668
51 355
51 356
51 634
51 635
52 342
52 343
52 678
52 679
53 358
53 359
53 424
53 425
53 500
53 501
54 660
54 661
55 254
55 255
55 517
55 518
56 364
56 365
56 474
56 475
56 542
56 543
57 365
57 366
57 699
57 700
58 327
58 328
58 714
58 715
59 632
59 633
60 343
60 344
60 610
60 611
61 620
61 621
62 529
62 530
63 419
63 420
64 308
64 309
65 74
65 353
65 354
65 439
65 515
66 381
66 382
67 368
67 369
67 478
67 479
68 713
68 714
69 377
69 378
70 582
70 583
70 639
70 640
71 640
71 641
72 397
72 398
72 572
72 573
73 293
73 294
74 370
74 371
74 439
74 515
74 705
74 706
75 265
75 266
76 651
76 652
77 378
77 379
78 631
78 632
79 391
79 392
79 434
79 435
79 453
79 454
79 510
79 511
80 418
80 419
80 712
80 713
81 413
81 414
82 315
82 316
82 477
82 478
82 585
82 586
83 96
83 717
84 629
84 630
85 174
85 394
85 395
85 442
85 671
86 350
86 351
86 433
86 434
86 508
86 509
86 532
86 533
87 609
87 610
88 301
88 302
88 460
88 461
88 566
88 567
89 392
89 393
89 613
89 614
90 278
90 279
90 427
90 428
90 489
90 490
90 503
90 504
90 549
90 550
91 337
91 338
92 649
92 650
93 388
93 389
93 558
93 559
93 602
93 603
93 673
93 674
94 385
94 386
94 553
94 554
94 665
94 666
94 715
94 716
95 647
95 648
95 702
95 703
96 116
96 332
96 333
96 497
96 597
96 598
96 668
96 717
97 380
97 381
97 552
97 553
97 664
97 665
97 710
97 711
98 376
98 377
98 490
98 491
98 548
98 549
99 701
99 702
100 650
100 651
100 704
100 705
101 393
101 394
101 568
101 569
102 630
102 631
103 288
103 289
104 416
104 417
104 491
104 492
104 661
104 662
105 339
105 340
105 428
105 429
105 447
105 448
105 504
105 505
105 521
105 522
106 268
106 269
106 437
106 438
106 465
106 466
106 513
106 514
107 307
107 308
107 687
107 688
108 696
108 697
109 349
109 350
110 340
110 341
110 449
110 450
110 523
110 524
111 544
111 545
112 407
112 408
113 313
113 314
114 294
114 295
114 430
114 431
114 506
114 507
115 591
115 592
116 191
116 334
116 335
116 497
116 598
117 303
117 304
118 286
118 287
119 333
119 334
120 408
120 409
121 373
121 374
121 484
121 485
121 657
121 658
122 366
122 367
123 686
123 687
124 666
124 667
125 611
125 612
126 676
126 677
127 266
127 267
127 462
127 463
127 531
127 532
128 354
128 355
128 691
128 692
129 677
129 678
130 387
130 388
130 557
130 558
131 296
131 297
131 562
131 563
132 400
132 401
132 463
132 464
132 573
132 574
133 269
133 270
133 536
133 537
134 297
134 298
134 452
134 453
135 253
135 254
135 443
135 444
135 516
135 517
136 530
136 531
137 410
137 411
138 372
138 373
138 656
138 657
139 300
139 301
139 564
139 565
140 685
140 686
141 285
141 286
141 493
141 494
141 554
141 555
142 672
142 673
143 703
143 704
144 295
144 296
144 451
144 452
144 561
144 562
145 535
145 536
145 637
145 638
146 692
146 693
147 369
147 370
147 480
147 481
147 545
147 546
148 571
148 572
148 688
148 689
149 654
149 655
150 317
150 318
151 341
151 342
152 256
152 257
152 446
152 447
152 519
152 520
153 520
153 521
153 603
153 604
154 344
154 345
155 270
155 271
155 472
155 473
155 538
155 539
156 615
156 616
157 583
157 584
158 625
158 626
159 316
159 317
159 432
159 433
159 476
159 477
159 509
159 510
160 305
160 306
161 271
161 272
161 473
161 474
162 255
162 256
162 445
162 446
162 518
162 519
163 618
163 619
163 680
163 681
164 274
164 275
164 475
164 476
164 543
164 544
165 329
165 330
165 494
165 495
165 594
165 595
166 411
166 412
167 252
168 601
168 602
169 298
169 299
169 563
169 564
170 617
170 618
170 681
170 682
171 335
171 336
172 608
172 609
173 325
173 326
173 492
173 493
173 590
173 591
174 671
175 360
175 361
175 537
175 538
176 356
176 357
176 423
176 424
176 470
176 471
176 499
176 500
176 534
176 535
177 276
177 277
177 481
177 482
177 546
177 547
178 277
178 278
178 486
178 487
179 555
179 556
180 401
180 402
180 466
180 467
180 575
180 576
181 352
181 353
181 690
181 691
182 383
182 384
183 627
183 628
184 662
184 663
185 606
185 607
186 291
186 292
187 299
187 300
187 616
187 617
188 311
188 312
189 579
189 580
190 314
190 315
190 584
190 585
190 643
190 644
190 698
190 699
191 196
191 420
191 598
192 405
192 406
193 346
193 347
193 458
193 459
193 527
193 528
194 283
194 284
195 289
195 290
195 556
195 557
196 420
196 496
196 497
196 595
196 596
197 262
197 263
197 459
197 460
197 528
197 529
198 322
198 323
198 659
198 660
199 336
199 337
199 444
199 445
199 599
199 600
200 667
200 668
201 361
201 362
201 641
201 642
201 695
201 696
202 272
202 273
203 679
203 680
204 348
204 349
204 684
204 685
205 655
205 656
205 706
205 707
206 708
206 709
207 302
207 303
207 567
207 568
208 669
208 670
209 362
209 363
210 402
210 403
210 467
210 468
210 576
210 577
211 287
211 288
212 395
212 396
212 461
212 462
212 569
212 570
213 386
213 387
214 522
214 523
215 404
215 405
215 471
215 472
215 580
215 581
216 539
216 540
216 694
216 695
217 319
217 320
217 421
217 422
217 483
217 484
218 398
218 399
219 312
219 313
219 635
219 636
220 290
220 291
220 448
220 449
220 560
220 561
221 384
221 385
221 431
221 432
221 507
221 508
222 417
222 418
223 310
223 311
223 633
223 634
224 559
224 560
225 396
225 397
225 623
225 624
226 371
226 372
227 347
227 348
228 399
228 400
228 464
228 465
228 689
228 690
229 403
229 404
229 469
229 470
229 578
229 579
230 324
230 325
230 709
230 710
231 374
231 375
231 487
231 488
231 547
231 548
232 328
232 329
232 593
232 594
233 338
233 339
234 626
234 627
235 412
235 413
235 482
235 483
235 587
235 588
236 574
236 575
237 363
237 364
238 318
238 319
238 436
238 437
238 479
238 480
238 512
238 513
238 586
238 587
239 321
239 322
240 604
240 605
240 675
240 676
241 306
241 307
241 570
241 571
242 292
242 293
242 429
242 430
242 441
242 442
242 450
242 451
242 505
242 506
242 670
242 671
243 273
243 274
243 541
243 542
243 645
243 646
243 700
243 701
244 379
244 380
245 600
245 601
246 422
246 423
246 498
246 499
247 267
247 268
247 533
247 534
248 284
248 285
248 716
248 717
249 642
249 643
250 588
250 589
251 252
253 254
254 255
255 256
256 257
257 258
258 259
259 260
260 261
261 262
262 263
263 264
264 265
265 266
266 267
267 268
268 269
269 270
270 271
271 272
272 273
273 274
274 275
275 276
276 277
277 278
278 279
279 280
280 281
281 282
282 283
283 284
284 285
285 286
286 287
287 288
288 289
289 290
290 291
291 292
292 293
293 294
294 295
295 296
296 297
297 298
298 299
299 300
300 301
301 302
302 303
303 304
304 305
305 306
306 307
307 308
308 309
309 310
310 311
311 312
312 313
313 314
314 315
315 316
316 317
317 318
318 319
319 320
320 321
321 322
322 323
323 324
324 325
325 326
326 327
327 328
328 329
329 330
330 331
331 332
332 333
333 334
334 335
335 336
336 337
337 338
338 339
339 340
340 341
341 342
342 343
343 344
344 345
345 346
346 347
347 348
348 349
349 350
350 351
351 352
352 353
353 354
354 355
355 356
356 357
357 358
358 359
359 360
360 361
361 362
362 363
363 364
364 365
365 366
366 367
367 368
368 369
369 370
370 371
371 372
372 373
373 374
374 375
375 376
376 377
377 378
378 379
379 380
380 381
381 382
382 383
383 384
384 385
385 386
386 387
387 388
388 389
389 390
390 391
391 392
392 393
393 394
394 395
395 396
396 397
397 398
398 399
399 400
400 401
401 402
402 403
403 404
404 405
405 406
406 407
407 408
408 409
409 410
410 411
411 412
412 413
413 414
414 415
415 416
416 417
417 418
418 419
419 420
421 422
422 423
423 424
424 425
425 426
426 427
427 428
428 429
429 430
430 431
431 432
432 433
433 434
434 435
435 436
436 437
437 438
438 439
440 441
441 442
443 444
444 445
445 446
446 447
447 448
448 449
449 450
450 451
451 452
452 453
453 454
454 455
455 456
456 457
457 458
458 459
459 460
460 461
461 462
462 463
463 464
464 465
465 466
466 467
467 468
468 469
469 470
470 471
471 472
472 473
473 474
474 475
475 476
476 477
477 478
478 479
479 480
480 481
481 482
482 483
483 484
484 485
485 486
486 487
487 488
488 489
489 490
490 491
491 492
492 493
493 494
494 495
495 496
496 497
498 499
499 500
500 501
501 502
502 503
503 504
504 505
505 506
506 507
507 508
508 509
509 510
510 511
511 512
512 513
513 514
514 515
516 517
517 518
518 519
519 520
520 521
521 522
522 523
523 524
524 525
525 526
526 527
527 528
528 529
529 530
530 531
531 532
532 533
533 534
534 535
535 536
536 537
537 538
538 539
539 540
540 541
541 542
542 543
543 544
544 545
545 546
546 547
547 548
548 549
549 550
550 551
551 552
552 553
553 554
554 555
555 556
556 557
557 558
558 559
559 560
560 561
561 562
562 563
563 564
564 565
565 566
566 567
567 568
568 569
569 570
570 571
571 572
572 573
573 574
574 575
575 576
576 577
577 578
578 579
579 580
580 581
581 582
582 583
583 584
584 585
585 586
586 587
587 588
588 589
589 590
590 591
591 592
592 593
593 594
594 595
595 596
596 597
597 598
599 600
600 601
601 602
602 603
603 604
604 605
605 606
606 607
607 608
608 609
609 610
610 611
611 612
612 613
613 614
614 615
615 616
616 617
617 618
618 619
619 620
620 621
621 622
622 623
623 624
624 625
625 626
626 627
627 628
628 629
629 630
630 631
631 632
632 633
633 634
634 635
635 636
636 637
637 638
638 639
639 640
640 641
641 642
642 643
643 644
644 645
645 646
646 647
647 648
648 649
649 650
650 651
651 652
652 653
653 654
654 655
655 656
656 657
657 658
658 659
659 660
660 661
661 662
662 663
663 664
664 665
665 666
666 667
667 668
669 670
670 671
672 673
673 674
674 675
675 676
676 677
677 678
678 679
679 680
680 681
681 682
682 683
683 684
684 685
685 686
686 687
687 688
688 689
689 690
690 691
691 692
692 693
693 694
694 695
695 696
696 697
697 698
698 699
699 700
700 701
701 702
702 703
703 704
704 705
705 706
706 707
707 708
708 709
709 710
710 711
711 712
712 713
713 714
714 715
715 716
716 717
